Route #1: 39 28 5
Route #2: 2 48 40 4 18 26 47 49 33 12 27
Route #3: 3 13 38 22 14 31 6
Route #4: 44 30 19 29 32 45
Route #5: 10 1 21 42 17 8
Route #6: 34 7 37 20
Route #7: 25 24 16 11 43 36 9
Route #8: 15 35 41 23 46
cost 1364.0498046875